p cnf 297 713
1 0
7 -8 0
-7 8 0
9 -10 0
-9 10 0
6 -7 0
6 -9 0
-6 7 9 0
11 -12 0
-11 12 0
5 -6 0
5 -11 0
-5 6 11 0
-14 6 0
14 -6 0
15 12 0
-15 -12 0
13 -14 0
13 -15 0
-13 14 15 0
-4 5 0
-4 13 0
4 -5 -13 0
18 -8 0
-18 8 0
19 10 0
-19 -10 0
17 -18 0
17 -19 0
-17 18 19 0
20 -12 0
-20 12 0
16 -17 0
16 -20 0
-16 17 20 0
-3 4 0
-3 16 0
3 -4 -16 0
-25 3 0
25 -3 0
35 -36 0
-35 36 0
37 38 0
-37 -38 0
-34 35 0
-34 37 0
34 -35 -37 0
39 40 0
-39 -40 0
-33 34 0
-33 39 0
33 -34 -39 0
43 44 0
-43 -44 0
45 46 0
-45 -46 0
-42 43 0
-42 45 0
42 -43 -45 0
47 48 0
-47 -48 0
-41 42 0
-41 47 0
41 -42 -47 0
-32 33 0
-32 41 0
32 -33 -41 0
52 36 0
-52 -36 0
53 38 0
-53 -38 0
-51 52 0
-51 53 0
51 -52 -53 0
54 40 0
-54 -40 0
-50 51 0
-50 54 0
50 -51 -54 0
57 44 0
-57 -44 0
58 -46 0
-58 46 0
-56 57 0
-56 58 0
56 -57 -58 0
59 -48 0
-59 48 0
-55 56 0
-55 59 0
55 -56 -59 0
-49 50 0
-49 55 0
49 -50 -55 0
31 -32 0
31 -49 0
-31 32 49 0
63 36 0
-63 -36 0
64 -38 0
-64 38 0
-62 63 0
-62 64 0
62 -63 -64 0
65 -40 0
-65 40 0
-61 62 0
-61 65 0
61 -62 -65 0
68 -44 0
-68 44 0
69 46 0
-69 -46 0
-67 68 0
-67 69 0
67 -68 -69 0
70 48 0
-70 -48 0
-66 67 0
-66 70 0
66 -67 -70 0
-60 61 0
-60 66 0
60 -61 -66 0
30 -31 0
30 -60 0
-30 31 60 0
-73 62 0
73 -62 0
74 40 0
-74 -40 0
-72 73 0
-72 74 0
72 -73 -74 0
-76 56 0
76 -56 0
77 48 0
-77 -48 0
-75 76 0
-75 77 0
75 -76 -77 0
-71 72 0
-71 75 0
71 -72 -75 0
29 -30 0
29 -71 0
-29 30 71 0
-79 50 0
79 -50 0
-80 75 0
80 -75 0
-78 79 0
-78 80 0
78 -79 -80 0
28 -29 0
28 -78 0
-28 29 78 0
-83 51 0
83 -51 0
84 -40 0
-84 40 0
-82 83 0
-82 84 0
82 -83 -84 0
-86 42 0
86 -42 0
87 -48 0
-87 48 0
-85 86 0
-85 87 0
85 -86 -87 0
-81 82 0
-81 85 0
81 -82 -85 0
27 -28 0
27 -81 0
-27 28 81 0
-89 50 0
89 -50 0
-90 85 0
90 -85 0
-88 89 0
-88 90 0
88 -89 -90 0
26 -27 0
26 -88 0
-26 27 88 0
-24 25 0
-24 26 0
24 -25 -26 0
-92 3 0
92 -3 0
-100 33 0
100 -33 0
103 8 0
-103 -8 0
104 10 0
-104 -10 0
-102 103 0
-102 104 0
102 -103 -104 0
105 12 0
-105 -12 0
-101 102 0
-101 105 0
101 -102 -105 0
-99 100 0
-99 101 0
99 -100 -101 0
-107 50 0
107 -50 0
110 8 0
-110 -8 0
111 -10 0
-111 10 0
-109 110 0
-109 111 0
109 -110 -111 0
112 -12 0
-112 12 0
-108 109 0
-108 112 0
108 -109 -112 0
-106 107 0
-106 108 0
106 -107 -108 0
98 -99 0
98 -106 0
-98 99 106 0
-114 61 0
114 -61 0
117 -8 0
-117 8 0
118 10 0
-118 -10 0
-116 117 0
-116 118 0
116 -117 -118 0
119 12 0
-119 -12 0
-115 116 0
-115 119 0
115 -116 -119 0
-113 114 0
-113 115 0
113 -114 -115 0
97 -98 0
97 -113 0
-97 98 113 0
-121 72 0
121 -72 0
-123 109 0
123 -109 0
124 12 0
-124 -12 0
-122 123 0
-122 124 0
122 -123 -124 0
-120 121 0
-120 122 0
120 -121 -122 0
96 -97 0
96 -120 0
-96 97 120 0
-126 50 0
126 -50 0
-127 122 0
127 -122 0
-125 126 0
-125 127 0
125 -126 -127 0
95 -96 0
95 -125 0
-95 96 125 0
-129 82 0
129 -82 0
-131 102 0
131 -102 0
132 -12 0
-132 12 0
-130 131 0
-130 132 0
130 -131 -132 0
-128 129 0
-128 130 0
128 -129 -130 0
94 -95 0
94 -128 0
-94 95 128 0
-134 50 0
134 -50 0
-135 130 0
135 -130 0
-133 134 0
-133 135 0
133 -134 -135 0
93 -94 0
93 -133 0
-93 94 133 0
-91 92 0
-91 93 0
91 -92 -93 0
23 -24 0
23 -91 0
-23 24 91 0
-137 3 0
137 -3 0
-145 33 0
145 -33 0
148 149 0
-148 -149 0
150 151 0
-150 -151 0
-147 148 0
-147 150 0
147 -148 -150 0
152 153 0
-152 -153 0
-146 147 0
-146 152 0
146 -147 -152 0
-144 145 0
-144 146 0
144 -145 -146 0
-155 50 0
155 -50 0
158 149 0
-158 -149 0
159 -151 0
-159 151 0
-157 158 0
-157 159 0
157 -158 -159 0
160 -153 0
-160 153 0
-156 157 0
-156 160 0
156 -157 -160 0
-154 155 0
-154 156 0
154 -155 -156 0
143 -144 0
143 -154 0
-143 144 154 0
-162 61 0
162 -61 0
165 -149 0
-165 149 0
166 151 0
-166 -151 0
-164 165 0
-164 166 0
164 -165 -166 0
167 153 0
-167 -153 0
-163 164 0
-163 167 0
163 -164 -167 0
-161 162 0
-161 163 0
161 -162 -163 0
142 -143 0
142 -161 0
-142 143 161 0
-169 72 0
169 -72 0
-171 157 0
171 -157 0
172 153 0
-172 -153 0
-170 171 0
-170 172 0
170 -171 -172 0
-168 169 0
-168 170 0
168 -169 -170 0
141 -142 0
141 -168 0
-141 142 168 0
-174 50 0
174 -50 0
-175 170 0
175 -170 0
-173 174 0
-173 175 0
173 -174 -175 0
140 -141 0
140 -173 0
-140 141 173 0
-177 82 0
177 -82 0
-179 147 0
179 -147 0
180 -153 0
-180 153 0
-178 179 0
-178 180 0
178 -179 -180 0
-176 177 0
-176 178 0
176 -177 -178 0
139 -140 0
139 -176 0
-139 140 176 0
-182 50 0
182 -50 0
-183 178 0
183 -178 0
-181 182 0
-181 183 0
181 -182 -183 0
138 -139 0
138 -181 0
-138 139 181 0
-136 137 0
-136 138 0
136 -137 -138 0
22 -23 0
22 -136 0
-22 23 136 0
-185 3 0
185 -3 0
-193 33 0
193 -33 0
-194 50 0
194 -50 0
-192 193 0
-192 194 0
192 -193 -194 0
-196 50 0
196 -50 0
-197 61 0
197 -61 0
-195 196 0
-195 197 0
195 -196 -197 0
191 -192 0
191 -195 0
-191 192 195 0
-199 61 0
199 -61 0
-200 33 0
200 -33 0
-198 199 0
-198 200 0
198 -199 -200 0
190 -191 0
190 -198 0
-190 191 198 0
-202 72 0
202 -72 0
-203 72 0
203 -72 0
-201 202 0
-201 203 0
201 -202 -203 0
189 -190 0
189 -201 0
-189 190 201 0
-205 50 0
205 -50 0
-206 72 0
206 -72 0
-204 205 0
-204 206 0
204 -205 -206 0
188 -189 0
188 -204 0
-188 189 204 0
-208 82 0
208 -82 0
-209 82 0
209 -82 0
-207 208 0
-207 209 0
207 -208 -209 0
187 -188 0
187 -207 0
-187 188 207 0
-211 50 0
211 -50 0
-212 82 0
212 -82 0
-210 211 0
-210 212 0
210 -211 -212 0
186 -187 0
186 -210 0
-186 187 210 0
-184 185 0
-184 186 0
184 -185 -186 0
21 -22 0
21 -184 0
-21 22 184 0
2 -3 0
2 -21 0
-2 3 21 0
-223 66 0
223 -66 0
-224 101 0
224 -101 0
-222 223 0
-222 224 0
222 -223 -224 0
-226 41 0
226 -41 0
-227 108 0
227 -108 0
-225 226 0
-225 227 0
225 -226 -227 0
221 -222 0
221 -225 0
-221 222 225 0
-229 55 0
229 -55 0
-230 115 0
230 -115 0
-228 229 0
-228 230 0
228 -229 -230 0
220 -221 0
220 -228 0
-220 221 228 0
-232 75 0
232 -75 0
-233 122 0
233 -122 0
-231 232 0
-231 233 0
231 -232 -233 0
219 -220 0
219 -231 0
-219 220 231 0
-235 41 0
235 -41 0
-236 122 0
236 -122 0
-234 235 0
-234 236 0
234 -235 -236 0
218 -219 0
218 -234 0
-218 219 234 0
-238 85 0
238 -85 0
-239 130 0
239 -130 0
-237 238 0
-237 239 0
237 -238 -239 0
217 -218 0
217 -237 0
-217 218 237 0
-241 41 0
241 -41 0
-242 130 0
242 -130 0
-240 241 0
-240 242 0
240 -241 -242 0
216 -217 0
216 -240 0
-216 217 240 0
-250 115 0
250 -115 0
-251 146 0
251 -146 0
-249 250 0
-249 251 0
249 -250 -251 0
-253 101 0
253 -101 0
-254 156 0
254 -156 0
-252 253 0
-252 254 0
252 -253 -254 0
248 -249 0
248 -252 0
-248 249 252 0
-256 108 0
256 -108 0
-257 163 0
257 -163 0
-255 256 0
-255 257 0
255 -256 -257 0
247 -248 0
247 -255 0
-247 248 255 0
-259 122 0
259 -122 0
-260 170 0
260 -170 0
-258 259 0
-258 260 0
258 -259 -260 0
246 -247 0
246 -258 0
-246 247 258 0
-262 101 0
262 -101 0
-263 170 0
263 -170 0
-261 262 0
-261 263 0
261 -262 -263 0
245 -246 0
245 -261 0
-245 246 261 0
-265 130 0
265 -130 0
-266 178 0
266 -178 0
-264 265 0
-264 266 0
264 -265 -266 0
244 -245 0
244 -264 0
-244 245 264 0
-268 101 0
268 -101 0
-269 178 0
269 -178 0
-267 268 0
-267 269 0
267 -268 -269 0
243 -244 0
243 -267 0
-243 244 267 0
-215 216 0
-215 243 0
215 -216 -243 0
-277 163 0
277 -163 0
-278 50 0
278 -50 0
-276 277 0
-276 278 0
276 -277 -278 0
-280 146 0
280 -146 0
-281 61 0
281 -61 0
-279 280 0
-279 281 0
279 -280 -281 0
275 -276 0
275 -279 0
-275 276 279 0
-283 156 0
283 -156 0
-284 33 0
284 -33 0
-282 283 0
-282 284 0
282 -283 -284 0
274 -275 0
274 -282 0
-274 275 282 0
-286 170 0
286 -170 0
-287 72 0
287 -72 0
-285 286 0
-285 287 0
285 -286 -287 0
273 -274 0
273 -285 0
-273 274 285 0
-289 146 0
289 -146 0
-290 72 0
290 -72 0
-288 289 0
-288 290 0
288 -289 -290 0
272 -273 0
272 -288 0
-272 273 288 0
-292 178 0
292 -178 0
-293 82 0
293 -82 0
-291 292 0
-291 293 0
291 -292 -293 0
271 -272 0
271 -291 0
-271 272 291 0
-295 146 0
295 -146 0
-296 82 0
296 -82 0
-294 295 0
-294 296 0
294 -295 -296 0
270 -271 0
270 -294 0
-270 271 294 0
-214 215 0
-214 270 0
214 -215 -270 0
-297 41 0
297 -41 0
-213 214 0
-213 297 0
213 -214 -297 0
-1 2 0
-1 213 0
1 -2 -213 0
